Route #1: 13 14 15 1 2 8 21 22 9 3 10 4 5 16 23 17 6 18 24 27 35 43 36 28 25 11 7 12 19 29 30 37 50 45 44 56 62 76 82 83 77 63 64 70 84 97 96 95 94 81 75 69 55 54 61 60 53 42 26 41 40 34 33 48 49 52 66 67 68 58 59 73 74 80 88 93 100 92 79 78 87 91 99 90 98 89 85 86 72 65 51 47 39 32 20 31 38 46 57 71
Cost 45963
